% MCP DATA

% Set data parameters
m = 3; % Number of couriers
n = 7; % Number of items
capacity = [15, 10, 7]; % Courier capacities
itemSize = [3, 2, 6, 8, 5, 4, 4]; % Item sizes
distanceMatrix = [|0, 3, 3, 6, 5, 6, 6, 2
                  |3, 0, 6, 3, 4, 7, 7, 3
                  |3, 4, 0, 7, 6, 3, 5, 3
                  |6, 3, 7, 0, 5, 6, 7, 4
                  |5, 4, 6, 3, 0, 3, 3, 3
                  |6, 7, 3, 6, 3, 0, 2, 4
                  |6, 7, 5, 6, 3, 2, 0, 4
                  |2, 3, 3, 4, 3, 4, 4, 0
                  |];
is_symmetric = false;
min_used_capacities = [15, 10, 7];
max_used_capacities = [15, 10, 7];
min_durations = [2, 2, 1];
max_durations = [5, 4, 3];
